WARNING: for repeatability, setting FPU to use double precision
============================[ Problem Statistics ]=============================
|                                                                             |
|  Number of variables:           100                                         |
|  Number of clauses:             449                                         |
|  Parse time:                   0.00 s                                       |
|  Simplification time:          0.00 s                                       |
|                                                                             |
============================[ Search Statistics ]==============================
| Conflicts |          ORIGINAL         |          LEARNT          | Progress |
|           |    Vars  Clauses Literals |    Limit  Clauses Lit/Cl |          |
===============================================================================
|       100 |     100      449     1347 |      164      100      6 |  0.010 % |
===============================================================================
restarts              : 3
conflicts             : 245            (74018 /sec)
decisions             : 315            (0.00 % random) (95166 /sec)
propagations          : 5528           (1670091 /sec)
conflict literals     : 1461           (19.50 % deleted)
Memory used           : 13.00 MB
CPU time              : 0.00331 s

SATISFIABLE
